30
1 0 6
2 0 2
2 1 2
3 0 3
3 1 2
3 2 6
4 0 6
4 1 1
4 2 2
4 3 3
5 0 2
5 1 2
5 2 3
5 3 2
5 4 6
6 0 2
6 1 6
6 2 6
6 3 4
6 4 5
6 5 6
7 0 4
7 1 4
7 2 4
7 3 4
7 4 6
7 5 2
7 6 1
8 0 2
8 1 1
8 2 1
8 3 2
8 4 4
8 5 1
8 6 4
8 7 2
9 0 4
9 1 6
9 2 6
9 3 1
9 4 2
9 5 5
9 6 6
9 7 2
9 8 4
10 0 4
10 1 3
10 2 3
10 3 1
10 4 2
10 5 4
10 6 4
10 7 2
10 8 6
10 9 1
11 0 6
11 1 2
11 2 2
11 3 1
11 4 4
11 5 2
11 6 2
11 7 6
11 8 2
11 9 3
11 10 6
12 0 3
12 1 3
12 2 4
12 3 5
12 4 5
12 5 2
12 6 5
12 7 4
12 8 6
12 9 4
12 10 3
12 11 5
13 0 1
13 1 6
13 2 1
13 3 3
13 4 5
13 5 6
13 6 6
13 7 5
13 8 6
13 9 5
13 10 1
13 11 6
13 12 6
14 0 5
14 1 2
14 2 2
14 3 1
14 4 3
14 5 2
14 6 6
14 7 3
14 8 2
14 9 5
14 10 4
14 11 3
14 12 6
14 13 5
15 0 3
15 1 4
15 2 2
15 3 4
15 4 4
15 5 3
15 6 5
15 7 3
15 8 1
15 9 6
15 10 3
15 11 2
15 12 1
15 13 1
15 14 3
16 0 4
16 1 1
16 2 1
16 3 1
16 4 2
16 5 6
16 6 2
16 7 1
16 8 6
16 9 3
16 10 2
16 11 2
16 12 1
16 13 5
16 14 2
16 15 2
17 0 1
17 1 6
17 2 2
17 3 4
17 4 5
17 5 2
17 6 6
17 7 5
17 8 1
17 9 6
17 10 3
17 11 1
17 12 4
17 13 2
17 14 2
17 15 1
17 16 2
18 0 2
18 1 5
18 2 4
18 3 5
18 4 1
18 5 3
18 6 5
18 7 5
18 8 1
18 9 1
18 10 5
18 11 1
18 12 3
18 13 5
18 14 5
18 15 1
18 16 4
18 17 4
19 0 1
19 1 4
19 2 4
19 3 4
19 4 1
19 5 3
19 6 6
19 7 6
19 8 5
19 9 2
19 10 3
19 11 5
19 12 5
19 13 5
19 14 5
19 15 4
19 16 5
19 17 1
19 18 4
20 0 6
20 1 3
20 2 3
20 3 1
20 4 5
20 5 6
20 6 3
20 7 6
20 8 4
20 9 5
20 10 6
20 11 3
20 12 4
20 13 6
20 14 5
20 15 2
20 16 6
20 17 4
20 18 1
20 19 1
21 0 2
21 1 3
21 2 2
21 3 1
21 4 4
21 5 5
21 6 3
21 7 2
21 8 2
21 9 1
21 10 3
21 11 5
21 12 4
21 13 5
21 14 5
21 15 6
21 16 4
21 17 6
21 18 2
21 19 6
21 20 2
22 0 6
22 1 4
22 2 1
22 3 2
22 4 3
22 5 4
22 6 4
22 7 1
22 8 2
22 9 4
22 10 2
22 11 2
22 12 4
22 13 2
22 14 6
22 15 6
22 16 6
22 17 4
22 18 3
22 19 6
22 20 6
22 21 4
23 0 5
23 1 3
23 2 3
23 3 1
23 4 1
23 5 2
23 6 1
23 7 5
23 8 1
23 9 3
23 10 3
23 11 6
23 12 5
23 13 4
23 14 5
23 15 5
23 16 2
23 17 5
23 18 4
23 19 5
23 20 1
23 21 4
23 22 6
24 0 4
24 1 6
24 2 3
24 3 5
24 4 3
24 5 2
24 6 5
24 7 4
24 8 4
24 9 4
24 10 3
24 11 6
24 12 6
24 13 1
24 14 2
24 15 6
24 16 5
24 17 4
24 18 2
24 19 1
24 20 4
24 21 6
24 22 5
24 23 2
25 0 4
25 1 3
25 2 2
25 3 3
25 4 2
25 5 1
25 6 3
25 7 6
25 8 3
25 9 3
25 10 1
25 11 5
25 12 5
25 13 6
25 14 6
25 15 5
25 16 1
25 17 6
25 18 3
25 19 4
25 20 3
25 21 2
25 22 1
25 23 2
25 24 5
26 0 2
26 1 5
26 2 6
26 3 4
26 4 2
26 5 3
26 6 2
26 7 6
26 8 6
26 9 5
26 10 1
26 11 3
26 12 4
26 13 6
26 14 4
26 15 2
26 16 2
26 17 6
26 18 4
26 19 4
26 20 4
26 21 4
26 22 1
26 23 5
26 24 6
26 25 1
27 0 1
27 1 2
27 2 2
27 3 6
27 4 5
27 5 6
27 6 1
27 7 4
27 8 1
27 9 6
27 10 1
27 11 1
27 12 6
27 13 1
27 14 4
27 15 2
27 16 4
27 17 3
27 18 6
27 19 3
27 20 3
27 21 1
27 22 6
27 23 2
27 24 4
27 25 1
27 26 3
28 0 1
28 1 3
28 2 6
28 3 1
28 4 4
28 5 2
28 6 3
28 7 6
28 8 4
28 9 2
28 10 4
28 11 3
28 12 6
28 13 6
28 14 2
28 15 3
28 16 6
28 17 1
28 18 4
28 19 2
28 20 5
28 21 3
28 22 2
28 23 5
28 24 6
28 25 1
28 26 6
28 27 1
29 0 6
29 1 1
29 2 2
29 3 2
29 4 4
29 5 2
29 6 4
29 7 4
29 8 6
29 9 4
29 10 6
29 11 2
29 12 3
29 13 3
29 14 4
29 15 6
29 16 3
29 17 2
29 18 2
29 19 3
29 20 4
29 21 1
29 22 2
29 23 1
29 24 1
29 25 1
29 26 2
29 27 6
29 28 5
